#-------------------------- Initial Setup -------------------------------------#
  units             lj
  atom_style        atomic
  boundary          p p p # PBC
#------------------------------------------------------------------------------#


#-------------------------- Atomic Setup --------------------------------------#
# Reads data from thermal simulation and adds pair_coeff's because read data
# does not store these correctly

  pair_style        lj/cut 2.5 # Define interaction potential.
  read_data         data.therm

  pair_coeff        1 1 1.0 1.0
  pair_coeff        1 2 1.5 0.80 
  pair_coeff        2 2 0.5 0.88

#------------------------------------------------------------------------------#


#-------------------------------- Dumps ---------------------------------------#
# Dump stride is choosen so that ~25 frames are printed for temperature lower
# this should be enough to prove (using intermediate scattering function, pe,
# ke, and pressure data) that we have equilibrated our system
  dump              dumpID all custom 42400 lowerT.lammpstrj id type x y z
#------------------------------------------------------------------------------#


#------------------------------ Fixes -----------------------------------------#
# Temperature was choosen by looking at Sam's PNAs T=0.47 is above MCT of KA
# model
  fix               integrator all nvt temp 1.0 0.47 1.0
#------------------------------------------------------------------------------#


#------------------------- Thermo stuff ---------------------------------------#
# Timestep chosen so that we are well below (~1/40) the fastest vibrational 
# frequency of the system (sqrt(m/V''(r0)) where r0 is the minima of the LJ
# potential. Thermo choosen for same reason as dump. Initial velocity choosen
# to be temperature of initial randomization
  thermo_style      custom step pe ke press temp # Output.
  thermo            42400 # Output stride.
  timestep          0.005
#------------------------------------------------------------------------------#


#------------------------- Running the Simulation -----------------------------#
# Simulation length choosen so that cooling rate is 10^-4
  run               1060000
#------------------------------------------------------------------------------#


#------------------------------ 2nd Fixes -------------------------------------#
  fix               integrator all nvt temp 0.47 0.47 1.0
#------------------------------------------------------------------------------#


#------------------------- Running the Simulation -----------------------------#
# Simulation length choosen to be 10x the \tau_\alpha relaxation time
  run               2000000
#------------------------------------------------------------------------------#


#------------------------- Writing Simulation data ----------------------------#
  write_data        data.lowerT
#------------------------------------------------------------------------------#
